SAT
42 -33 96 -7 -92 -9 -23 -75 -40 2 -12 62 5 73 -30 51 -82 60 -16 -69 -41 80 -35 48 -28 77 -57 -18 38 -10 43 -100 -61 -45 93 98 -67 90 78 -39 58 -26 -36 -15 94 8 44 -6 83 97 -20 37 64 89 46 13 -54 -4 -99 -74 -29 -55 -85 21 -11 70 17 -91 34 32 -3 -59 -56 50 68 -81 -65 -63 76 66 25 47 -27 49 -86 88 -84 31 -22 -19 72 87 24 -71 52 -1 -79 -95 -53 14 0
